CMD:
./solvers/bin/cadical --plain --no-reduce -t 1600 ./data/cnfs//oski15a01b41s/oski15a01b41s.70.cnf

c --- [ banner ] -------------------------------------------------------------
c 
c CaDiCaL SAT Solver
c Copyright (c) 2016-2024
c A. Biere, M. Fleury, N. Froleyks, K. Fazekas, F. Pollitt, T. Faller
c JKU Linz, University of Freiburg, TU Wien
c 
c Version 2.1.3 5296d3d2a9bf48c154ab2acb5e44625776d821bf
c g++ (Gentoo 12.3.1_p20230526 p2) 12.3.1 20230526 -Wall -Wextra -O3 -DNDEBUG
c Sat Aug 9 07:26:21 PDT 2025 Linux cedar2.int.cedar.computecanada.ca 5.14.0-362.24.2.el9_3.x86_64 x86_64
c 
c --- [ limit ] --------------------------------------------------------------
c 
c setting time limit to 1600 seconds real time (due to '-t 1600')
c 
c --- [ parsing input ] ------------------------------------------------------
c 
c reading DIMACS file from './data/cnfs//oski15a01b41s/oski15a01b41s.70.cnf'
c opening file to read './data/cnfs//oski15a01b41s/oski15a01b41s.70.cnf'
c found 'p cnf 22857782 65303825' header
c parsed 65303825 clauses in 12.39 seconds process time
c 
c --- [ options ] ------------------------------------------------------------
c 
c   --compact=false                (different from default 'true')
c   --decompose=false              (different from default 'true')
c   --deduplicate=false            (different from default 'true')
c   --elim=false                   (different from default 'true')
c   --probe=false                  (different from default 'true')
c   --reduce=false                 (different from default 'true')
c   --subsume=false                (different from default 'true')
c   --ternary=false                (different from default 'true')
c   --transred=false               (different from default 'true')
c   --vivify=false                 (different from default 'true')
c 
c --- [ solving ] ------------------------------------------------------------
c 
c time measured in process time since initialization
c 
c  seconds    reductions  redundant   irredundant
c          MB     restarts       trail          variables
c            level   conflicts       glue              remaining
c 
c * 12.39 9853  0 0   0    0    0  0% 0 62392341 18636507 82%
c { 16.87 9992  0 0   0    0    0  0% 0 62392341 18636507 82%
c i 22.40 10003 8805 0  23  131  129 22% 3 62392341 18636506 82%
c i 22.41 10003 8542 0  24  135  131 22% 3 62392341 18636505 82%
c i 22.46 10004 2634 0  25  469  439 20% 2 62392341 18636502 82%
c i 22.46 10004 2628 0  25  470  439 20% 2 62392341 18636499 82%
c i 22.46 10004 2617 0  25  472  440 20% 2 62392341 18636498 82%
c i 22.51 10005 1922 0  34  642  596 20% 2 62392341 18636491 82%
c i 22.55 10005 1695 0  45  736  677 19% 2 62392341 18636489 82%
c i 22.55 10005 1679 0  45  743  683 19% 2 62392341 18636485 82%
c i 22.57 10006 1558 0  45  810  737 19% 2 62392341 18636307 82%
c i 22.57 10006 1554 0  45  812  738 19% 2 62392341 18636305 82%
c i 22.60 10006 1483 0  54  852  774 19% 2 62392341 18636299 82%
c i 22.67 10006 1379 0  72  922  834 19% 2 62392341 18636294 82%
c i 22.89 10006 1343 0  83  955  866 19% 2 62392341 18636291 82%
c i 22.92 10006 1332 0  84  966  875 19% 2 62392341 18636285 82%
c i 22.96 10006 1316 0  85  984  889 19% 2 62392341 18636282 82%
c i 23.05 10006 1300 0  89 1001  905 19% 2 62392341 18636280 82%
c } 23.05 10006 1300 0  89 1001  905 19% 2 62392341 18636280 82%
c [ 23.05 10006  0 0  89 1001  905  0% 0 62392341 18636280 82%
c 
c  seconds        reductions  redundant   irredundant
c           MB        restarts       trail          variables
c               level    conflicts       glue              remaining
c 
c O 23.98 10007 14989 0  89 1002  906 40% 2 62392341 18636279 82%
c ] 32.33 10010 8337 0  90 3002 2743 31% 23 62392341 18636279 82%
c { 32.33 10010 1300 0  90 3002 2743 19% 2 62392341 18636279 82%
c F 32.36 10010 1298 0  91 3003 2743 19% 2 62392341 18636279 82%
c i 32.38 10010 1294 0  92 3006 2745 19% 2 62392341 18636276 82%
c i 32.38 10010 1291 0  92 3008 2746 19% 2 62392341 18636272 82%
c i 32.46 10010 1254 0  97 3038 2774 19% 2 62392341 18636269 82%
c i 32.73 10010 1171 0 121 3119 2846 19% 2 62392341 18636204 82%
c i 32.73 10010 1170 0 122 3120 2846 19% 2 62392341 18636114 82%
c i 32.73 10010 1167 0 123 3123 2848 19% 2 62392341 18636112 82%
c i 32.93 10010 1149 0 128 3144 2867 19% 2 62392341 18636104 82%
c i 33.06 10010 1107 0 141 3193 2912 19% 2 62392341 18636099 82%
c i 33.09 10010 1076 0 149 3228 2946 19% 2 62392341 18636095 82%
c i 33.11 10010 1059 0 155 3248 2963 19% 2 62392341 18636092 82%
c i 33.12 10010 1050 0 159 3259 2973 19% 2 62392341 18636087 82%
c i 33.15 10010 1018 0 171 3298 3010 19% 2 62392341 18636084 82%
c i 33.18 10010 1000 0 179 3324 3033 19% 2 62392341 18636077 82%
c i 33.19 10010 988 0 184 3340 3047 19% 2 62392341 18636074 82%
c i 33.22 10010 959 0 195 3383 3088 19% 2 62392341 18636071 82%
c i 33.24 10010 959 0 196 3384 3088 19% 2 62392341 18636069 82%
c 
c  seconds      reductions  redundant   irredundant
c           MB      restarts       trail          variables
c              level   conflicts       glue              remaining
c 
c i 33.63 10011 937 0 212 3446 3141 19% 2 62392341 18636066 82%
c i 33.66 10011 934 0 213 3451 3145 19% 2 62392341 18636062 82%
c i 33.68 10011 927 0 217 3466 3155 19% 2 62392341 18636056 82%
c i 33.70 10011 924 0 218 3473 3159 19% 2 62392341 18636049 82%
... skipped 17206 lines ...
c i 1590.61 11307 3499 0 37575 728248 565493 26% 10 51873798 18320446 80%
c i 1590.61 11307 3499 0 37575 728253 565494 26% 10 51873798 18320438 80%
c i 1590.64 11307 3501 0 37575 728284 565520 26% 10 51873798 18320418 80%
c i 1590.65 11307 3501 0 37575 728302 565528 26% 10 51873798 18320415 80%
c i 1590.65 11307 3501 0 37575 728303 565528 26% 10 51873798 18320400 80%
c i 1590.65 11307 3501 0 37575 728304 565528 26% 10 51873798 18320397 80%
c i 1590.65 11307 3501 0 37575 728305 565528 26% 10 51873798 18320394 80%
c i 1590.65 11307 3501 0 37575 728306 565528 26% 10 51873798 18320391 80%
c i 1590.65 11307 3501 0 37575 728307 565528 26% 10 51873798 18320388 80%
c i 1590.66 11307 3503 0 37575 728331 565548 26% 10 51873798 18320382 80%
c 
c   seconds        reductions       redundant     irredundant
c             MB        restarts            trail           variables
c                level       conflicts          glue               remaining
c 
c i 1590.66 11307 3503 0 37575 728332 565548 26% 10 51873798 18320376 80%
c i 1590.66 11307 3503 0 37575 728333 565548 26% 10 51873798 18320373 80%
c i 1590.66 11307 3503 0 37575 728334 565548 26% 10 51873798 18320370 80%
c i 1590.66 11307 3503 0 37575 728335 565548 26% 10 51873798 18320367 80%
c i 1590.66 11307 3503 0 37575 728337 565549 26% 10 51873798 18320361 80%
c i 1590.67 11307 3505 0 37575 728374 565579 26% 10 51873798 18320298 80%
c i 1590.67 11307 3505 0 37575 728376 565580 26% 10 51873798 18320274 80%
c i 1591.06 11307 3509 0 37575 728420 565621 26% 10 51873798 18320264 80%
c i 1591.07 11307 3511 0 37575 728446 565646 26% 10 51873798 18320258 80%
c i 1591.07 11307 3512 0 37575 728468 565663 26% 10 51873798 18320252 80%
c i 1591.08 11307 3513 0 37575 728495 565685 26% 10 51873798 18320246 80%
c i 1591.08 11307 3514 0 37575 728504 565692 26% 10 51873798 18320240 80%
c i 1591.10 11307 3517 0 37575 728557 565739 26% 10 51873798 18320234 80%
c i 1591.15 11307 3522 0 37575 728666 565835 26% 10 51873798 18320228 80%
c i 1591.15 11307 3523 0 37575 728671 565839 26% 10 51873798 18320222 80%
c i 1591.15 11307 3523 0 37575 728680 565846 26% 10 51873798 18320210 80%
c i 1591.16 11307 3524 0 37575 728691 565856 26% 10 51873798 18320204 80%
c i 1591.16 11307 3524 0 37575 728700 565863 26% 10 51873798 18320198 80%
c i 1591.16 11307 3525 0 37575 728719 565877 26% 10 51873798 18320192 80%
c i 1591.16 11307 3526 0 37575 728736 565890 26% 10 51873798 18320186 80%
c 
c   seconds        reductions       redundant     irredundant
c             MB        restarts            trail           variables
c                level       conflicts          glue               remaining
c 
c i 1591.17 11307 3526 0 37575 728745 565893 26% 10 51873798 18320180 80%
c i 1591.87 11307 3543 0 37575 728829 565971 26% 10 51873798 18320178 80%
c i 1591.94 11307 3557 0 37575 728946 566025 26% 10 51873798 18320165 80%
c i 1591.94 11307 3560 0 37575 728992 566064 26% 10 51873798 18320105 80%
c ] 1592.21 11307 3560 0 37575 728992 566064 26% 10 51873798 18320105 80%
c ? 1592.21 11307 3560 0 37575 728992 566064 26% 10 51873798 18320105 80%
c 
c --- [ result ] -------------------------------------------------------------
c 
c UNKNOWN
c 
c --- [ run-time profiling ] -------------------------------------------------
c 
c process time taken by individual solving procedures
c (percentage relative to process time for solving)
c 
c      1579.82  100.00% search
c       818.66   51.82% unstable
c       616.29   39.01% stable
c       140.39    8.89% walk
c        12.39    0.78% parse
c         4.48    0.28% lucky
c         0.00    0.00% simplify
c   =================================
c      1579.82   99.22% solve
c 
c last line shows process time for solving
c (percentage relative to total process time)
c 
c --- [ statistics ] ---------------------------------------------------------
c 
c chronological:            404431        55.48 %  of conflicts
c conflicts:                728992       461.44    per second
c decisions:              25505515     16144.55    per second
c fixed:                   4537677        19.85 %  of all variables
c learned:                  683722        93.79 %  per conflict
c learned_lits:           14418477       100.00 %  learned literals
c minimized:                     0         0.00 %  learned literals
c shrunken:                2184143        15.15 %  learned literals
c minishrunken:            1344035         9.32 %  learned literals
c otfs:                       9092         1.25 %  of conflict
c propagations:        10256150631         6.49 M  per second
c rephased:                     37     19702.49    interval
c restarts:                  37575        19.40    interval
c stabilizing:                   5        53.21 %  of conflicts
c subsumed:                  63031         0.10 %  of all clauses
c strengthened:               8961         0.01 %  of all clauses
c walked:                       11     66272.00    interval
c 
c seconds are measured in process time for solving
c 
c --- [ resources ] ----------------------------------------------------------
c 
c total process time since initialization:      1592.21    seconds
c total real time since initialization:         1600.00    seconds
c maximum resident set size of process:        13437.11    MB
c 
c --- [ shutting down ] ------------------------------------------------------
c 
c exit 0
